\* Union Airways) *\
Minimize
OBJ: 170 s_1 + 160 s_2 + 175 s_3 + 180 s_4 + 195 s_5
Subject To
_C1: s_1 >= 48
_C10: s_5 >= 15
_C2: s_1 + s_2 >= 79
_C3: s_1 + s_2 >= 65
_C4: s_1 + s_2 + s_3 >= 87
_C5: s_2 + s_3 >= 64
_C6: s_3 + s_4 >= 73
_C7: s_3 + s_4 >= 82
_C8: s_4 >= 43
_C9: s_4 + s_5 >= 52
End

¡° Optimal Result ¡°

¡» s_1 = 48

¡» s_2 = 31

¡» s_3 = 39

¡» s_4 = 43

¡» s_5 = 15

